c generated by max2ere.py
p cnf 200 272
e 6 7 8 9 10 11 12 13 14 15 16 17 18 19 20 21 22 23 24 25 26 27 28 29 30 31 32 33 34 35 36 37 0
r 0.5 130 131 132 133 134 135 136 137 138 139 140 141 142 143 144 145 146 147 148 149 150 151 152 153 154 155 156 157 158 159 160 161 0
e 1 2 3 4 5 38 39 40 41 42 43 44 45 46 47 48 49 50 51 52 53 54 55 56 57 58 59 60 61 62 63 64 65 66 67 68 69 70 71 72 73 74 75 76 77 78 79 80 81 82 83 84 85 86 87 88 89 90 91 92 93 94 95 96 97 98 99 100 101 102 103 104 105 106 107 108 109 110 111 112 113 114 115 116 117 118 119 120 121 122 123 124 125 126 127 128 129 162 163 164 165 166 167 168 169 170 171 172 173 174 175 176 177 178 179 180 181 182 183 184 185 186 187 188 189 190 191 192 193 194 195 196 197 198 199 200 0
-1 -3 0
2 -3 0
1 -2 3 0
-1 -4 0
-2 -4 0
1 2 4 0
5 0
6 -70 0
7 -70 0
8 -70 0
9 -70 0
10 -70 0
11 -70 0
12 -70 0
13 -70 0
-14 -70 0
-15 -70 0
-16 -70 0
17 -70 0
-18 -70 0
-19 -70 0
-20 -70 0
21 -70 0
22 -70 0
23 -70 0
-24 -70 0
25 -70 0
-26 -70 0
-27 -70 0
28 -70 0
29 -70 0
-30 -70 0
31 -70 0
-32 -70 0
-33 -70 0
-34 -70 0
-35 -70 0
36 -70 0
-37 -70 0
-6 -7 -8 -9 -10 -11 -12 -13 14 15 16 -17 18 19 20 -21 -22 -23 24 -25 26 27 -28 -29 30 -31 32 33 34 35 -36 37 70 0
-1 -70 -71 0
1 70 -71 0
-1 70 71 0
1 -70 71 0
-71 0
6 -104 0
-7 -104 0
8 -104 0
-9 -104 0
10 -104 0
11 -104 0
12 -104 0
-13 -104 0
14 -104 0
-15 -104 0
-16 -104 0
17 -104 0
18 -104 0
19 -104 0
20 -104 0
21 -104 0
22 -104 0
-23 -104 0
-24 -104 0
-25 -104 0
-26 -104 0
-27 -104 0
28 -104 0
-29 -104 0
30 -104 0
-31 -104 0
-32 -104 0
-33 -104 0
-34 -104 0
-35 -104 0
36 -104 0
37 -104 0
-6 7 -8 9 -10 -11 -12 13 -14 15 16 -17 -18 -19 -20 -21 -22 23 24 25 26 27 -28 29 -30 31 32 33 34 35 -36 -37 104 0
-2 -104 -105 0
2 104 -105 0
-2 104 105 0
2 -104 105 0
-105 0
-2 -106 0
38 -106 0
2 -38 106 0
-2 -107 0
39 -107 0
2 -39 107 0
-2 -108 0
40 -108 0
2 -40 108 0
-2 -109 0
41 -109 0
2 -41 109 0
-2 -110 0
42 -110 0
2 -42 110 0
-2 -111 0
43 -111 0
2 -43 111 0
-2 -112 0
44 -112 0
2 -44 112 0
-2 -113 0
45 -113 0
2 -45 113 0
2 -114 0
54 -114 0
-2 -54 114 0
2 -115 0
55 -115 0
-2 -55 115 0
2 -116 0
56 -116 0
-2 -56 116 0
2 -117 0
57 -117 0
-2 -57 117 0
2 -118 0
58 -118 0
-2 -58 118 0
2 -119 0
59 -119 0
-2 -59 119 0
2 -120 0
60 -120 0
-2 -60 120 0
2 -121 0
61 -121 0
-2 -61 121 0
2 -122 0
62 -122 0
-2 -62 122 0
2 -123 0
63 -123 0
-2 -63 123 0
2 -124 0
64 -124 0
-2 -64 124 0
2 -125 0
65 -125 0
-2 -65 125 0
2 -126 0
66 -126 0
-2 -66 126 0
2 -127 0
67 -127 0
-2 -67 127 0
2 -128 0
68 -128 0
-2 -68 128 0
2 -129 0
69 -129 0
-2 -69 129 0
1 -106 130 0
1 106 -130 0
-1 -38 130 0
-1 38 -130 0
1 -107 131 0
1 107 -131 0
-1 -39 131 0
-1 39 -131 0
1 -108 132 0
1 108 -132 0
-1 -40 132 0
-1 40 -132 0
1 -109 133 0
1 109 -133 0
-1 -41 133 0
-1 41 -133 0
1 -110 134 0
1 110 -134 0
-1 -42 134 0
-1 42 -134 0
1 -111 135 0
1 111 -135 0
-1 -43 135 0
-1 43 -135 0
1 -112 136 0
1 112 -136 0
-1 -44 136 0
-1 44 -136 0
1 -113 137 0
1 113 -137 0
-1 -45 137 0
-1 45 -137 0
1 -138 0
46 -138 0
-1 -46 138 0
1 -139 0
47 -139 0
-1 -47 139 0
1 -140 0
48 -140 0
-1 -48 140 0
1 -141 0
49 -141 0
-1 -49 141 0
1 -142 0
50 -142 0
-1 -50 142 0
1 -143 0
51 -143 0
-1 -51 143 0
1 -144 0
52 -144 0
-1 -52 144 0
1 -145 0
53 -145 0
-1 -53 145 0
-1 -146 0
114 -146 0
1 -114 146 0
-1 -147 0
115 -147 0
1 -115 147 0
-1 -148 0
116 -148 0
1 -116 148 0
-1 -149 0
117 -149 0
1 -117 149 0
-1 -150 0
118 -150 0
1 -118 150 0
-1 -151 0
119 -151 0
1 -119 151 0
-1 -152 0
120 -152 0
1 -120 152 0
-1 -153 0
121 -153 0
1 -121 153 0
-1 -154 0
122 -154 0
1 -122 154 0
-1 -155 0
123 -155 0
1 -123 155 0
-1 -156 0
124 -156 0
1 -124 156 0
-1 -157 0
125 -157 0
1 -125 157 0
-1 -158 0
126 -158 0
1 -126 158 0
-1 -159 0
127 -159 0
1 -127 159 0
-1 -160 0
128 -160 0
1 -128 160 0
-1 -161 0
129 -161 0
1 -129 161 0
-194 -196 -198 0
194 196 -198 0
-194 196 198 0
194 -196 198 0
-195 -197 -199 0
195 197 -199 0
-195 197 199 0
195 -197 199 0
-198 -200 0
-199 -200 0
198 199 200 0
-5 200 0
5 -200 0
